(set-info :smt-lib-version 2.6)
(set-logic UFNIA)
(set-info :source |
Generated by: Geoff Sutcliffe
Generated on: 2026-03-11
Generator: TPTPWorld
Application: Benchmarking automated theorem provers
Time limit: 120.0

These benchmarks are translations from the TPTP Library (Thousands of
Problems for Theorem Provers), see http://www.cs.miami.edu/~tptp/

The TPTP is maintained by Geoff Sutcliffe, and he contributed this
selection of benchmarks to SMT-LIB.  They were exported from the
v9.2.1 realease of TPTP.
|)
(set-info :category "industrial")
(set-info :status "unknown")
; SZS status Success
(declare-sort $$unsorted 0)
(declare-sort tptp.uni 0)
(declare-sort tptp.ty 0)
(declare-fun tptp.sort (tptp.ty tptp.uni) Bool)
(declare-fun tptp.witness (tptp.ty) tptp.uni)
(assert (forall ((A tptp.ty)) (tptp.sort A (tptp.witness A))))
(declare-fun tptp.int () tptp.ty)
(declare-fun tptp.real () tptp.ty)
(declare-sort tptp.bool 0)
(declare-fun tptp.bool1 () tptp.ty)
(declare-fun tptp.true () tptp.bool)
(declare-fun tptp.false () tptp.bool)
(declare-fun tptp.match_bool (tptp.ty tptp.bool tptp.uni tptp.uni) tptp.uni)
(assert (forall ((A tptp.ty) (X tptp.bool) (X1 tptp.uni) (X2 tptp.uni)) (tptp.sort A (tptp.match_bool A X X1 X2))))
(assert (forall ((A tptp.ty) (Z tptp.uni) (Z1 tptp.uni)) (=> (tptp.sort A Z) (= (tptp.match_bool A tptp.true Z Z1) Z))))
(assert (forall ((A tptp.ty) (Z tptp.uni) (Z1 tptp.uni)) (=> (tptp.sort A Z1) (= (tptp.match_bool A tptp.false Z Z1) Z1))))
(assert (not (= tptp.true tptp.false)))
(assert (forall ((U tptp.bool)) (or (= U tptp.true) (= U tptp.false))))
(declare-sort tptp.tuple0 0)
(declare-fun tptp.tuple01 () tptp.ty)
(declare-fun tptp.tuple02 () tptp.tuple0)
(assert (forall ((U tptp.tuple0)) (= U tptp.tuple02)))
(declare-fun tptp.qtmark () tptp.ty)
(declare-fun tptp.list (tptp.ty) tptp.ty)
(declare-fun tptp.nil (tptp.ty) tptp.uni)
(assert (forall ((A tptp.ty)) (tptp.sort (tptp.list A) (tptp.nil A))))
(declare-fun tptp.cons (tptp.ty tptp.uni tptp.uni) tptp.uni)
(assert (forall ((A tptp.ty) (X tptp.uni) (X1 tptp.uni)) (tptp.sort (tptp.list A) (tptp.cons A X X1))))
(declare-fun tptp.match_list (tptp.ty tptp.ty tptp.uni tptp.uni tptp.uni) tptp.uni)
(assert (forall ((A tptp.ty) (A1 tptp.ty) (X tptp.uni) (X1 tptp.uni) (X2 tptp.uni)) (tptp.sort A1 (tptp.match_list A1 A X X1 X2))))
(assert (forall ((A tptp.ty) (A1 tptp.ty) (Z tptp.uni) (Z1 tptp.uni)) (=> (tptp.sort A1 Z) (= (tptp.match_list A1 A (tptp.nil A) Z Z1) Z))))
(assert (forall ((A tptp.ty) (A1 tptp.ty) (Z tptp.uni) (Z1 tptp.uni) (U tptp.uni) (U1 tptp.uni)) (=> (tptp.sort A1 Z1) (= (tptp.match_list A1 A (tptp.cons A U U1) Z Z1) Z1))))
(assert (forall ((A tptp.ty) (V tptp.uni) (V1 tptp.uni)) (not (= (tptp.nil A) (tptp.cons A V V1)))))
(declare-fun tptp.cons_proj_1 (tptp.ty tptp.uni) tptp.uni)
(assert (forall ((A tptp.ty) (X tptp.uni)) (tptp.sort A (tptp.cons_proj_1 A X))))
(assert (forall ((A tptp.ty) (U tptp.uni) (U1 tptp.uni)) (=> (tptp.sort A U) (= (tptp.cons_proj_1 A (tptp.cons A U U1)) U))))
(declare-fun tptp.cons_proj_2 (tptp.ty tptp.uni) tptp.uni)
(assert (forall ((A tptp.ty) (X tptp.uni)) (tptp.sort (tptp.list A) (tptp.cons_proj_2 A X))))
(assert (forall ((A tptp.ty) (U tptp.uni) (U1 tptp.uni)) (= (tptp.cons_proj_2 A (tptp.cons A U U1)) U1)))
(assert (forall ((A tptp.ty) (U tptp.uni)) (or (= U (tptp.nil A)) (= U (tptp.cons A (tptp.cons_proj_1 A U) (tptp.cons_proj_2 A U))))))
(declare-fun tptp.mem (tptp.ty tptp.uni tptp.uni) Bool)
(assert (forall ((A tptp.ty) (X tptp.uni)) (=> (tptp.sort A X) (and (not (tptp.mem A X (tptp.nil A))) (forall ((X1 tptp.uni) (X2 tptp.uni)) (=> (tptp.sort A X1) (= (tptp.mem A X (tptp.cons A X1 X2)) (or (= X X1) (tptp.mem A X X2)))))))))
(declare-fun tptp.infix_plpl (tptp.ty tptp.uni tptp.uni) tptp.uni)
(assert (forall ((A tptp.ty) (X tptp.uni) (X1 tptp.uni)) (tptp.sort (tptp.list A) (tptp.infix_plpl A X X1))))
(assert (forall ((A tptp.ty) (L2 tptp.uni)) (and (= (tptp.infix_plpl A (tptp.nil A) L2) L2) (forall ((X tptp.uni) (X1 tptp.uni)) (= (tptp.infix_plpl A (tptp.cons A X X1) L2) (tptp.cons A X (tptp.infix_plpl A X1 L2)))))))
(assert (forall ((A tptp.ty) (L1 tptp.uni) (L2 tptp.uni) (L3 tptp.uni)) (= (tptp.infix_plpl A L1 (tptp.infix_plpl A L2 L3)) (tptp.infix_plpl A (tptp.infix_plpl A L1 L2) L3))))
(assert (forall ((A tptp.ty) (L tptp.uni)) (= (tptp.infix_plpl A L (tptp.nil A)) L)))
(assert (forall ((X Int) (Y Int) (Z Int)) (=> (<= X Y) (=> (<= 0 Z) (<= (* X Z) (* Y Z))))))
(declare-fun tptp.length (tptp.ty tptp.uni) Int)
(assert (forall ((A tptp.ty)) (and (= (tptp.length A (tptp.nil A)) 0) (forall ((X tptp.uni) (X1 tptp.uni)) (= (tptp.length A (tptp.cons A X X1)) (+ 1 (tptp.length A X1)))))))
(assert (forall ((A tptp.ty) (L tptp.uni)) (<= 0 (tptp.length A L))))
(assert (forall ((A tptp.ty) (L tptp.uni)) (= (= (tptp.length A L) 0) (= L (tptp.nil A)))))
(assert (forall ((A tptp.ty) (L1 tptp.uni) (L2 tptp.uni)) (= (tptp.length A (tptp.infix_plpl A L1 L2)) (+ (tptp.length A L1) (tptp.length A L2)))))
(assert (forall ((A tptp.ty) (X tptp.uni) (L1 tptp.uni) (L2 tptp.uni)) (= (tptp.mem A X (tptp.infix_plpl A L1 L2)) (or (tptp.mem A X L1) (tptp.mem A X L2)))))
(assert (forall ((A tptp.ty) (X tptp.uni) (L tptp.uni)) (=> (tptp.mem A X L) (exists ((L1 tptp.uni) (L2 tptp.uni)) (let ((_let_1 (tptp.list A))) (and (tptp.sort _let_1 L1) (tptp.sort _let_1 L2) (= L (tptp.infix_plpl A L1 (tptp.cons A X L2)))))))))
(declare-fun tptp.distinct (tptp.ty tptp.uni) Bool)
(assert (forall ((A tptp.ty)) (tptp.distinct A (tptp.nil A))))
(assert (forall ((A tptp.ty) (X tptp.uni)) (tptp.distinct A (tptp.cons A X (tptp.nil A)))))
(assert (forall ((A tptp.ty) (X tptp.uni) (L tptp.uni)) (=> (not (tptp.mem A X L)) (=> (tptp.distinct A L) (tptp.distinct A (tptp.cons A X L))))))
(assert (forall ((A tptp.ty) (Z tptp.uni)) (=> (tptp.distinct A Z) (or (= Z (tptp.nil A)) (exists ((X tptp.uni)) (and (tptp.sort A X) (= Z (tptp.cons A X (tptp.nil A))))) (exists ((X tptp.uni) (L tptp.uni)) (and (tptp.sort A X) (tptp.sort (tptp.list A) L) (not (tptp.mem A X L)) (tptp.distinct A L) (= Z (tptp.cons A X L))))))))
(assert (forall ((A tptp.ty) (L1 tptp.uni) (L2 tptp.uni)) (=> (tptp.distinct A L1) (=> (tptp.distinct A L2) (=> (forall ((X tptp.uni)) (=> (tptp.sort A X) (=> (tptp.mem A X L1) (not (tptp.mem A X L2))))) (tptp.distinct A (tptp.infix_plpl A L1 L2)))))))
(declare-fun tptp.tree (tptp.ty) tptp.ty)
(declare-fun tptp.leaf (tptp.ty tptp.uni) tptp.uni)
(assert (forall ((A tptp.ty) (X tptp.uni)) (tptp.sort (tptp.tree A) (tptp.leaf A X))))
(declare-fun tptp.node (tptp.ty tptp.uni tptp.uni) tptp.uni)
(assert (forall ((A tptp.ty) (X tptp.uni) (X1 tptp.uni)) (tptp.sort (tptp.tree A) (tptp.node A X X1))))
(declare-fun tptp.match_tree (tptp.ty tptp.ty tptp.uni tptp.uni tptp.uni) tptp.uni)
(assert (forall ((A tptp.ty) (A1 tptp.ty) (X tptp.uni) (X1 tptp.uni) (X2 tptp.uni)) (tptp.sort A1 (tptp.match_tree A1 A X X1 X2))))
(assert (forall ((A tptp.ty) (A1 tptp.ty) (Z tptp.uni) (Z1 tptp.uni) (U tptp.uni)) (=> (tptp.sort A1 Z) (= (tptp.match_tree A1 A (tptp.leaf A U) Z Z1) Z))))
(assert (forall ((A tptp.ty) (A1 tptp.ty) (Z tptp.uni) (Z1 tptp.uni) (U tptp.uni) (U1 tptp.uni)) (=> (tptp.sort A1 Z1) (= (tptp.match_tree A1 A (tptp.node A U U1) Z Z1) Z1))))
(assert (forall ((A tptp.ty) (U tptp.uni) (V tptp.uni) (V1 tptp.uni)) (not (= (tptp.leaf A U) (tptp.node A V V1)))))
(declare-fun tptp.leaf_proj_1 (tptp.ty tptp.uni) tptp.uni)
(assert (forall ((A tptp.ty) (X tptp.uni)) (tptp.sort A (tptp.leaf_proj_1 A X))))
(assert (forall ((A tptp.ty) (U tptp.uni)) (=> (tptp.sort A U) (= (tptp.leaf_proj_1 A (tptp.leaf A U)) U))))
(declare-fun tptp.node_proj_1 (tptp.ty tptp.uni) tptp.uni)
(assert (forall ((A tptp.ty) (X tptp.uni)) (tptp.sort (tptp.tree A) (tptp.node_proj_1 A X))))
(assert (forall ((A tptp.ty) (U tptp.uni) (U1 tptp.uni)) (= (tptp.node_proj_1 A (tptp.node A U U1)) U)))
(declare-fun tptp.node_proj_2 (tptp.ty tptp.uni) tptp.uni)
(assert (forall ((A tptp.ty) (X tptp.uni)) (tptp.sort (tptp.tree A) (tptp.node_proj_2 A X))))
(assert (forall ((A tptp.ty) (U tptp.uni) (U1 tptp.uni)) (= (tptp.node_proj_2 A (tptp.node A U U1)) U1)))
(assert (forall ((A tptp.ty) (U tptp.uni)) (or (= U (tptp.leaf A (tptp.leaf_proj_1 A U))) (= U (tptp.node A (tptp.node_proj_1 A U) (tptp.node_proj_2 A U))))))
(declare-fun tptp.labels (tptp.ty tptp.uni) tptp.uni)
(assert (forall ((A tptp.ty) (X tptp.uni)) (tptp.sort (tptp.list A) (tptp.labels A X))))
(assert (forall ((A tptp.ty)) (and (forall ((X tptp.uni)) (= (tptp.labels A (tptp.leaf A X)) (tptp.cons A X (tptp.nil A)))) (forall ((X tptp.uni) (X1 tptp.uni)) (= (tptp.labels A (tptp.node A X X1)) (tptp.infix_plpl A (tptp.labels A X) (tptp.labels A X1)))))))
(assert (forall ((A tptp.ty) (X tptp.uni) (Y tptp.uni)) (=> (tptp.sort A X) (=> (tptp.sort A Y) (= (tptp.mem A X (tptp.labels A (tptp.leaf A Y))) (= X Y))))))
(assert (forall ((A tptp.ty) (X tptp.uni) (L tptp.uni) (R tptp.uni)) (= (tptp.mem A X (tptp.labels A (tptp.node A L R))) (or (tptp.mem A X (tptp.labels A L)) (tptp.mem A X (tptp.labels A R))))))
(declare-fun tptp.same_shape (tptp.ty tptp.ty tptp.uni tptp.uni) Bool)
(assert (forall ((A tptp.ty) (B tptp.ty) (X1 tptp.uni) (X2 tptp.uni)) (tptp.same_shape B A (tptp.leaf A X1) (tptp.leaf B X2))))
(assert (forall ((A tptp.ty) (B tptp.ty) (L1 tptp.uni) (R1 tptp.uni) (L2 tptp.uni) (R2 tptp.uni)) (=> (tptp.same_shape B A L1 L2) (=> (tptp.same_shape B A R1 R2) (tptp.same_shape B A (tptp.node A L1 R1) (tptp.node B L2 R2))))))
(assert (forall ((A tptp.ty) (B tptp.ty) (Z tptp.uni) (Z1 tptp.uni)) (=> (tptp.same_shape B A Z Z1) (or (exists ((X1 tptp.uni) (X2 tptp.uni)) (and (tptp.sort A X1) (tptp.sort B X2) (= Z (tptp.leaf A X1)) (= Z1 (tptp.leaf B X2)))) (exists ((L1 tptp.uni) (R1 tptp.uni) (L2 tptp.uni) (R2 tptp.uni)) (let ((_let_1 (tptp.tree B))) (let ((_let_2 (tptp.tree A))) (and (tptp.sort _let_2 L1) (tptp.sort _let_2 R1) (tptp.sort _let_1 L2) (tptp.sort _let_1 R2) (tptp.same_shape B A L1 L2) (tptp.same_shape B A R1 R2) (= Z (tptp.node A L1 R1)) (= Z1 (tptp.node B L2 R2))))))))))
(declare-fun tptp.ref (tptp.ty) tptp.ty)
(declare-fun tptp.mk_ref (tptp.ty tptp.uni) tptp.uni)
(assert (forall ((A tptp.ty) (X tptp.uni)) (tptp.sort (tptp.ref A) (tptp.mk_ref A X))))
(declare-fun tptp.contents (tptp.ty tptp.uni) tptp.uni)
(assert (forall ((A tptp.ty) (X tptp.uni)) (tptp.sort A (tptp.contents A X))))
(assert (forall ((A tptp.ty) (U tptp.uni)) (=> (tptp.sort A U) (= (tptp.contents A (tptp.mk_ref A U)) U))))
(assert (forall ((A tptp.ty) (U tptp.uni)) (=> (tptp.sort (tptp.ref A) U) (= U (tptp.mk_ref A (tptp.contents A U))))))
(declare-sort tptp.a 0)
(declare-fun tptp.a1 () tptp.ty)
(declare-sort tptp.tree_int 0)
(declare-fun tptp.t2tb (tptp.tree_int) tptp.uni)
(assert (forall ((X tptp.tree_int)) (tptp.sort (tptp.tree tptp.int) (tptp.t2tb X))))
(declare-fun tptp.tb2t (tptp.uni) tptp.tree_int)
(assert (forall ((I tptp.tree_int)) (= (tptp.tb2t (tptp.t2tb I)) I)))
(assert (forall ((J tptp.uni)) (= (tptp.t2tb (tptp.tb2t J)) J)))
(declare-sort tptp.list_int 0)
(declare-fun tptp.t2tb1 (tptp.list_int) tptp.uni)
(assert (forall ((X tptp.list_int)) (tptp.sort (tptp.list tptp.int) (tptp.t2tb1 X))))
(declare-fun tptp.tb2t1 (tptp.uni) tptp.list_int)
(assert (forall ((I tptp.list_int)) (= (tptp.tb2t1 (tptp.t2tb1 I)) I)))
(assert (forall ((J tptp.uni)) (= (tptp.t2tb1 (tptp.tb2t1 J)) J)))
(declare-sort tptp.tree_a1 0)
(declare-fun tptp.t2tb2 (tptp.tree_a1) tptp.uni)
(assert (forall ((X tptp.tree_a1)) (tptp.sort (tptp.tree tptp.a1) (tptp.t2tb2 X))))
(declare-fun tptp.tb2t2 (tptp.uni) tptp.tree_a1)
(assert (forall ((I tptp.tree_a1)) (= (tptp.tb2t2 (tptp.t2tb2 I)) I)))
(assert (forall ((J tptp.uni)) (= (tptp.t2tb2 (tptp.tb2t2 J)) J)))
(declare-fun tptp.t2tb3 (Int) tptp.uni)
(assert (forall ((X Int)) (tptp.sort tptp.int (tptp.t2tb3 X))))
(declare-fun tptp.tb2t3 (tptp.uni) Int)
(assert (forall ((I Int)) (= (tptp.tb2t3 (tptp.t2tb3 I)) I)))
(assert (forall ((J tptp.uni)) (= (tptp.t2tb3 (tptp.tb2t3 J)) J)))
(assert (not (forall ((R Int) (X tptp.tree_a1) (X1 tptp.tree_a1) (R1 Int) (O tptp.tree_int)) (let ((_let_1 (tptp.t2tb O))) (=> (and (tptp.same_shape tptp.int tptp.a1 (tptp.t2tb2 X1) _let_1) (tptp.distinct tptp.int (tptp.labels tptp.int _let_1)) (<= R R1) (forall ((X2 Int)) (=> (tptp.mem tptp.int (tptp.t2tb3 X2) (tptp.labels tptp.int (tptp.t2tb O))) (and (< R X2) (<= X2 R1))))) (forall ((R2 Int) (O1 tptp.tree_int)) (let ((_let_1 (tptp.t2tb O1))) (let ((_let_2 (tptp.node tptp.int _let_1 (tptp.t2tb O)))) (let ((_let_3 (tptp.t2tb2 X))) (=> (and (tptp.same_shape tptp.int tptp.a1 _let_3 _let_1) (tptp.distinct tptp.int (tptp.labels tptp.int _let_1)) (<= R1 R2) (forall ((X2 Int)) (=> (tptp.mem tptp.int (tptp.t2tb3 X2) (tptp.labels tptp.int (tptp.t2tb O1))) (and (< R1 X2) (<= X2 R2))))) (and (tptp.same_shape tptp.int tptp.a1 (tptp.node tptp.a1 _let_3 (tptp.t2tb2 X1)) _let_2) (tptp.distinct tptp.int (tptp.labels tptp.int _let_2)) (<= R R2) (forall ((X2 Int)) (=> (tptp.mem tptp.int (tptp.t2tb3 X2) (tptp.labels tptp.int (tptp.node tptp.int (tptp.t2tb O1) (tptp.t2tb O)))) (and (< R X2) (<= X2 R2)))))))))))))))
(check-sat)
